src/global_planner/utils/lkh_tsp_solver/resource/single.tsp
NAME : single
TYPE : ATSP
DIMENSION : 6
EDGE_WEIGHT_TYPE : EXPLICIT
EDGE_WEIGHT_FORMAT : FULL_MATRIX
EDGE_WEIGHT_SECTION
0 0 1249 1479 1525 1492 
199852 0 1249 1479 1525 1492 
199655 1249 0 442 488 455 
199609 1479 442 0 469 435 
199600 1525 488 469 0 98 
199606 1492 455 435 98 0 
EOF