src/global_planner/utils/lkh_tsp_solver/resource/single.txt
NAME : single.204669.tour
COMMENT : Length = 204669
COMMENT : Found by LKH [Keld Helsgaun] Wed Sep  3 13:39:07 2025
TYPE : TOUR
DIMENSION : 7
TOUR_SECTION
1
2
5
7
6
4
3
-1
EOF
